(declare-fun sea.sp0_0 () (_ BitVec 32))
(declare-fun main@%_928_0 () (_ BitVec 32))
(declare-fun main@%_1080_0 () (_ BitVec 32))
(declare-fun main@%_624_0 () (_ BitVec 32))
(declare-fun main@%_776_0 () (_ BitVec 32))
(declare-fun main@%_169_0 () (_ BitVec 32))
(declare-fun main@%_320_0 () (_ BitVec 32))
(declare-fun main@%sm1153_0 () (Array (_ BitVec 32) (_ BitVec 32)))
(declare-fun main@%_25_0 () (_ BitVec 32))
(declare-fun main@%_472_0 () (_ BitVec 32))

(assert (let ((a!1 (ite (bvsle #x00000006 main@%_25_0)
                (ite (bvsle #x00000007 main@%_25_0)
                     #x00000000
                     (ite (= main@%_25_0 #x00000006) #x00000001 #x00000000))
                #x00000000))
      (a!2 (ite (bvsle #x00000002 main@%_25_0)
                (ite (= main@%_25_0 #x00000002) #x00000002 #x00000000)
                (ite (= main@%_25_0 #x00000001) #x00000002 #x00000000)))
      (a!5 (ite (and (bvule (bvadd #xfffffff0 sea.sp0_0)
                            (bvadd #xffffffec sea.sp0_0))
                     (bvule (bvadd #xffffffec sea.sp0_0)
                            (bvadd #xfffffffc sea.sp0_0)))
                #x00000000
                #x00000002))
      (a!9 (ite (and (bvule (bvadd #xfffffff0 sea.sp0_0)
                            (bvadd #xfffffff8 sea.sp0_0))
                     (bvule (bvadd #xfffffff8 sea.sp0_0)
                            (bvadd #xfffffffc sea.sp0_0)))
                #x00000000
                (select main@%sm1153_0 (bvadd #xfffffff8 sea.sp0_0))))
      (a!12 (ite (and (bvule (bvadd #xfffffff0 sea.sp0_0)
                             (bvadd #xffffffe8 sea.sp0_0))
                      (bvule (bvadd #xffffffe8 sea.sp0_0)
                             (bvadd #xfffffffc sea.sp0_0)))
                 #x00000000
                 #x00000002))
      (a!20 (ite (bvule (bvadd #xfffffff0 sea.sp0_0)
                        (bvadd #xfffffffc sea.sp0_0))
                 #x00000000
                 (select main@%sm1153_0 (bvadd #xfffffff0 sea.sp0_0)))))
(let ((a!3 (ite (= main@%_169_0 #x00000006)
                (bvadd #x00000001 (ite (bvsle #x00000004 main@%_25_0) a!1 a!2))
                (ite (bvsle #x00000004 main@%_25_0) a!1 a!2)))
      (a!6 (ite (bvsle #x00000004 main@%_25_0)
                a!5
                (ite (bvsle #x00000002 main@%_25_0)
                     (ite (= main@%_25_0 #x00000002) #x00000002 a!5)
                     (ite (= main@%_25_0 #x00000001) #x00000002 a!5))))
      (a!7 (= (bvmul #x00000004 (ite (bvsle #x00000004 main@%_25_0) a!1 a!2))
              #x0000001c))
      (a!8 (ite (bvsle #x00000004 main@%_25_0)
                (ite (bvsle #x00000006 main@%_25_0)
                     #x00000000
                     (ite (= main@%_25_0 #x00000005) #x00000000 #x00000001))
                a!2))
      (a!10 (ite (bvsle #x00000006 main@%_25_0)
                 (ite (bvsle #x00000007 main@%_25_0)
                      a!9
                      (ite (= main@%_25_0 #x00000006) #x00000001 a!9))
                 a!9))
      (a!16 (= (bvmul #x00000004 (ite (bvsle #x00000004 main@%_25_0) a!1 a!2))
               #x00000010))
      (a!19 (= (bvmul #x00000004 (ite (bvsle #x00000004 main@%_25_0) a!1 a!2))
               #x00000014))
      (a!21 (ite (bvsle #x00000004 main@%_25_0)
                 (ite (bvsle #x00000006 main@%_25_0)
                      a!20
                      (ite (= main@%_25_0 #x00000005) a!20 #x00000001))
                 (ite (bvsle #x00000002 main@%_25_0)
                      (ite (= main@%_25_0 #x00000002) #x00000002 a!20)
                      (ite (= main@%_25_0 #x00000001) #x00000002 a!20))))
      (a!25 (= (bvmul #x00000004 (ite (bvsle #x00000004 main@%_25_0) a!1 a!2))
               #x0000000c)))
(let ((a!4 (ite (bvsle #x00000006 main@%_169_0)
                (ite (bvsle #x00000007 main@%_169_0)
                     (ite (bvsle #x00000004 main@%_25_0) a!1 a!2)
                     a!3)
                (ite (bvsle #x00000004 main@%_25_0) a!1 a!2)))
      (a!11 (ite (bvsle #x00000004 main@%_25_0)
                 a!10
                 (ite (bvsle #x00000002 main@%_25_0)
                      (ite (= main@%_25_0 #x00000002) #x00000002 a!9)
                      (ite (= main@%_25_0 #x00000001) #x00000002 a!9))))
      (a!17 (ite (bvsle #x00000004 main@%_169_0)
                 a!6
                 (ite (bvsle #x00000002 main@%_169_0)
                      (ite (= main@%_169_0 #x00000002) a!12 (ite a!16 a!8 a!6))
                      (ite (= main@%_169_0 #x00000001) a!12 a!6))))
      (a!22 (ite (bvsle #x00000004 main@%_169_0)
                 (ite (bvsle #x00000006 main@%_169_0)
                      a!8
                      (ite (= main@%_169_0 #x00000005)
                           a!8
                           (bvadd #x00000001 a!8)))
                 (ite (bvsle #x00000002 main@%_169_0)
                      (ite (= main@%_169_0 #x00000002) a!12 (ite a!19 a!8 a!21))
                      (ite (= main@%_169_0 #x00000001) a!6 a!8))))
      (a!26 (ite (bvsle #x00000004 main@%_169_0)
                 a!12
                 (ite (bvsle #x00000002 main@%_169_0)
                      (ite (= main@%_169_0 #x00000002) a!12 (ite a!25 a!8 a!12))
                      a!12)))
      (a!34 (ite (bvsle #x00000004 main@%_169_0)
                 (ite (bvsle #x00000006 main@%_169_0)
                      a!21
                      (ite (= main@%_169_0 #x00000005)
                           a!21
                           (bvadd #x00000001 a!8)))
                 (ite (bvsle #x00000002 main@%_169_0)
                      (ite (= main@%_169_0 #x00000002) a!12 (ite a!19 a!8 a!21))
                      (ite (= main@%_169_0 #x00000001) a!6 a!21)))))
(let ((a!13 (ite (bvsle #x00000002 main@%_169_0)
                 (ite (= main@%_169_0 #x00000002) a!6 (ite a!7 a!8 a!11))
                 (ite (= main@%_169_0 #x00000001)
                      a!12
                      (ite (bvsle #x00000004 main@%_25_0) a!1 a!2))))
      (a!23 (ite (= main@%_169_0 #x00000006)
                 (bvadd #x00000001 (ite (bvsle #x00000004 main@%_25_0) a!1 a!2))
                 a!11)))
(let ((a!14 (ite (= main@%_320_0 #x00000006)
                 (bvadd #x00000001
                        (ite (bvsle #x00000004 main@%_169_0) a!4 a!13))
                 (ite (bvsle #x00000004 main@%_169_0) a!4 a!13)))
      (a!18 (= (bvmul #x00000004 (ite (bvsle #x00000004 main@%_169_0) a!4 a!13))
               #x0000001c))
      (a!24 (ite (bvsle #x00000004 main@%_169_0)
                 (ite (bvsle #x00000006 main@%_169_0)
                      (ite (bvsle #x00000007 main@%_169_0) a!11 a!23)
                      a!11)
                 (ite (bvsle #x00000002 main@%_169_0)
                      (ite (= main@%_169_0 #x00000002) a!6 (ite a!7 a!8 a!11))
                      (ite (= main@%_169_0 #x00000001) a!12 a!11))))
      (a!30 (= (bvmul #x00000004 (ite (bvsle #x00000004 main@%_169_0) a!4 a!13))
               #x00000010))
      (a!33 (= (bvmul #x00000004 (ite (bvsle #x00000004 main@%_169_0) a!4 a!13))
               #x00000014))
      (a!38 (= (bvmul #x00000004 (ite (bvsle #x00000004 main@%_169_0) a!4 a!13))
               #x0000000c)))
(let ((a!15 (ite (bvsle #x00000006 main@%_320_0)
                 (ite (bvsle #x00000007 main@%_320_0)
                      (ite (bvsle #x00000004 main@%_169_0) a!4 a!13)
                      a!14)
                 (ite (bvsle #x00000004 main@%_169_0) a!4 a!13)))
      (a!27 (ite (bvsle #x00000002 main@%_320_0)
                 (ite (= main@%_320_0 #x00000002) a!17 (ite a!18 a!22 a!24))
                 (ite (= main@%_320_0 #x00000001)
                      a!26
                      (ite (bvsle #x00000004 main@%_169_0) a!4 a!13))))
      (a!31 (ite (bvsle #x00000004 main@%_320_0)
                 a!17
                 (ite (bvsle #x00000002 main@%_320_0)
                      (ite (= main@%_320_0 #x00000002)
                           a!26
                           (ite a!30 a!22 a!17))
                      (ite (= main@%_320_0 #x00000001) a!26 a!17))))
      (a!35 (ite (bvsle #x00000004 main@%_320_0)
                 (ite (bvsle #x00000006 main@%_320_0)
                      a!22
                      (ite (= main@%_320_0 #x00000005)
                           a!22
                           (bvadd #x00000001 a!22)))
                 (ite (bvsle #x00000002 main@%_320_0)
                      (ite (= main@%_320_0 #x00000002)
                           a!26
                           (ite a!33 a!22 a!34))
                      (ite (= main@%_320_0 #x00000001) a!17 a!22))))
      (a!36 (ite (= main@%_320_0 #x00000006)
                 (bvadd #x00000001
                        (ite (bvsle #x00000004 main@%_169_0) a!4 a!13))
                 a!24))
      (a!39 (ite (bvsle #x00000004 main@%_320_0)
                 a!26
                 (ite (bvsle #x00000002 main@%_320_0)
                      (ite (= main@%_320_0 #x00000002)
                           a!26
                           (ite a!38 a!22 a!26))
                      a!26)))
      (a!47 (ite (bvsle #x00000004 main@%_320_0)
                 (ite (bvsle #x00000006 main@%_320_0)
                      a!34
                      (ite (= main@%_320_0 #x00000005)
                           a!34
                           (bvadd #x00000001 a!22)))
                 (ite (bvsle #x00000002 main@%_320_0)
                      (ite (= main@%_320_0 #x00000002)
                           a!26
                           (ite a!33 a!22 a!34))
                      (ite (= main@%_320_0 #x00000001) a!17 a!34)))))
(let ((a!28 (ite (= main@%_472_0 #x00000006)
                 (bvadd #x00000001
                        (ite (bvsle #x00000004 main@%_320_0) a!15 a!27))
                 (ite (bvsle #x00000004 main@%_320_0) a!15 a!27)))
      (a!32 (= (bvmul #x00000004
                      (ite (bvsle #x00000004 main@%_320_0) a!15 a!27))
               #x0000001c))
      (a!37 (ite (bvsle #x00000004 main@%_320_0)
                 (ite (bvsle #x00000006 main@%_320_0)
                      (ite (bvsle #x00000007 main@%_320_0) a!24 a!36)
                      a!24)
                 (ite (bvsle #x00000002 main@%_320_0)
                      (ite (= main@%_320_0 #x00000002)
                           a!17
                           (ite a!18 a!22 a!24))
                      (ite (= main@%_320_0 #x00000001) a!26 a!24))))
      (a!43 (= (bvmul #x00000004
                      (ite (bvsle #x00000004 main@%_320_0) a!15 a!27))
               #x00000010))
      (a!46 (= (bvmul #x00000004
                      (ite (bvsle #x00000004 main@%_320_0) a!15 a!27))
               #x00000014))
      (a!51 (= (bvmul #x00000004
                      (ite (bvsle #x00000004 main@%_320_0) a!15 a!27))
               #x0000000c)))
(let ((a!29 (ite (bvsle #x00000006 main@%_472_0)
                 (ite (bvsle #x00000007 main@%_472_0)
                      (ite (bvsle #x00000004 main@%_320_0) a!15 a!27)
                      a!28)
                 (ite (bvsle #x00000004 main@%_320_0) a!15 a!27)))
      (a!40 (ite (bvsle #x00000002 main@%_472_0)
                 (ite (= main@%_472_0 #x00000002) a!31 (ite a!32 a!35 a!37))
                 (ite (= main@%_472_0 #x00000001)
                      a!39
                      (ite (bvsle #x00000004 main@%_320_0) a!15 a!27))))
      (a!44 (ite (bvsle #x00000004 main@%_472_0)
                 a!31
                 (ite (bvsle #x00000002 main@%_472_0)
                      (ite (= main@%_472_0 #x00000002)
                           a!39
                           (ite a!43 a!35 a!31))
                      (ite (= main@%_472_0 #x00000001) a!39 a!31))))
      (a!48 (ite (bvsle #x00000004 main@%_472_0)
                 (ite (bvsle #x00000006 main@%_472_0)
                      a!35
                      (ite (= main@%_472_0 #x00000005)
                           a!35
                           (bvadd #x00000001 a!35)))
                 (ite (bvsle #x00000002 main@%_472_0)
                      (ite (= main@%_472_0 #x00000002)
                           a!39
                           (ite a!46 a!35 a!47))
                      (ite (= main@%_472_0 #x00000001) a!31 a!35))))
      (a!49 (ite (= main@%_472_0 #x00000006)
                 (bvadd #x00000001
                        (ite (bvsle #x00000004 main@%_320_0) a!15 a!27))
                 a!37))
      (a!52 (ite (bvsle #x00000004 main@%_472_0)
                 a!39
                 (ite (bvsle #x00000002 main@%_472_0)
                      (ite (= main@%_472_0 #x00000002)
                           a!39
                           (ite a!51 a!35 a!39))
                      a!39)))
      (a!60 (ite (bvsle #x00000004 main@%_472_0)
                 (ite (bvsle #x00000006 main@%_472_0)
                      a!47
                      (ite (= main@%_472_0 #x00000005)
                           a!47
                           (bvadd #x00000001 a!35)))
                 (ite (bvsle #x00000002 main@%_472_0)
                      (ite (= main@%_472_0 #x00000002)
                           a!39
                           (ite a!46 a!35 a!47))
                      (ite (= main@%_472_0 #x00000001) a!31 a!47)))))
(let ((a!41 (ite (= main@%_624_0 #x00000006)
                 (bvadd #x00000001
                        (ite (bvsle #x00000004 main@%_472_0) a!29 a!40))
                 (ite (bvsle #x00000004 main@%_472_0) a!29 a!40)))
      (a!45 (= (bvmul #x00000004
                      (ite (bvsle #x00000004 main@%_472_0) a!29 a!40))
               #x0000001c))
      (a!50 (ite (bvsle #x00000004 main@%_472_0)
                 (ite (bvsle #x00000006 main@%_472_0)
                      (ite (bvsle #x00000007 main@%_472_0) a!37 a!49)
                      a!37)
                 (ite (bvsle #x00000002 main@%_472_0)
                      (ite (= main@%_472_0 #x00000002)
                           a!31
                           (ite a!32 a!35 a!37))
                      (ite (= main@%_472_0 #x00000001) a!39 a!37))))
      (a!56 (= (bvmul #x00000004
                      (ite (bvsle #x00000004 main@%_472_0) a!29 a!40))
               #x00000010))
      (a!59 (= (bvmul #x00000004
                      (ite (bvsle #x00000004 main@%_472_0) a!29 a!40))
               #x00000014))
      (a!64 (= (bvmul #x00000004
                      (ite (bvsle #x00000004 main@%_472_0) a!29 a!40))
               #x0000000c)))
(let ((a!42 (ite (bvsle #x00000006 main@%_624_0)
                 (ite (bvsle #x00000007 main@%_624_0)
                      (ite (bvsle #x00000004 main@%_472_0) a!29 a!40)
                      a!41)
                 (ite (bvsle #x00000004 main@%_472_0) a!29 a!40)))
      (a!53 (ite (bvsle #x00000002 main@%_624_0)
                 (ite (= main@%_624_0 #x00000002) a!44 (ite a!45 a!48 a!50))
                 (ite (= main@%_624_0 #x00000001)
                      a!52
                      (ite (bvsle #x00000004 main@%_472_0) a!29 a!40))))
      (a!57 (ite (bvsle #x00000004 main@%_624_0)
                 a!44
                 (ite (bvsle #x00000002 main@%_624_0)
                      (ite (= main@%_624_0 #x00000002)
                           a!52
                           (ite a!56 a!48 a!44))
                      (ite (= main@%_624_0 #x00000001) a!52 a!44))))
      (a!61 (ite (bvsle #x00000004 main@%_624_0)
                 (ite (bvsle #x00000006 main@%_624_0)
                      a!48
                      (ite (= main@%_624_0 #x00000005)
                           a!48
                           (bvadd #x00000001 a!48)))
                 (ite (bvsle #x00000002 main@%_624_0)
                      (ite (= main@%_624_0 #x00000002)
                           a!52
                           (ite a!59 a!48 a!60))
                      (ite (= main@%_624_0 #x00000001) a!44 a!48))))
      (a!62 (ite (= main@%_624_0 #x00000006)
                 (bvadd #x00000001
                        (ite (bvsle #x00000004 main@%_472_0) a!29 a!40))
                 a!50))
      (a!65 (ite (bvsle #x00000004 main@%_624_0)
                 a!52
                 (ite (bvsle #x00000002 main@%_624_0)
                      (ite (= main@%_624_0 #x00000002)
                           a!52
                           (ite a!64 a!48 a!52))
                      a!52)))
      (a!73 (ite (bvsle #x00000004 main@%_624_0)
                 (ite (bvsle #x00000006 main@%_624_0)
                      a!60
                      (ite (= main@%_624_0 #x00000005)
                           a!60
                           (bvadd #x00000001 a!48)))
                 (ite (bvsle #x00000002 main@%_624_0)
                      (ite (= main@%_624_0 #x00000002)
                           a!52
                           (ite a!59 a!48 a!60))
                      (ite (= main@%_624_0 #x00000001) a!44 a!60)))))
(let ((a!54 (ite (= main@%_776_0 #x00000006)
                 (bvadd #x00000001
                        (ite (bvsle #x00000004 main@%_624_0) a!42 a!53))
                 (ite (bvsle #x00000004 main@%_624_0) a!42 a!53)))
      (a!58 (= (bvmul #x00000004
                      (ite (bvsle #x00000004 main@%_624_0) a!42 a!53))
               #x0000001c))
      (a!63 (ite (bvsle #x00000004 main@%_624_0)
                 (ite (bvsle #x00000006 main@%_624_0)
                      (ite (bvsle #x00000007 main@%_624_0) a!50 a!62)
                      a!50)
                 (ite (bvsle #x00000002 main@%_624_0)
                      (ite (= main@%_624_0 #x00000002)
                           a!44
                           (ite a!45 a!48 a!50))
                      (ite (= main@%_624_0 #x00000001) a!52 a!50))))
      (a!69 (= (bvmul #x00000004
                      (ite (bvsle #x00000004 main@%_624_0) a!42 a!53))
               #x00000010))
      (a!72 (= (bvmul #x00000004
                      (ite (bvsle #x00000004 main@%_624_0) a!42 a!53))
               #x00000014))
      (a!77 (= (bvmul #x00000004
                      (ite (bvsle #x00000004 main@%_624_0) a!42 a!53))
               #x0000000c)))
(let ((a!55 (ite (bvsle #x00000006 main@%_776_0)
                 (ite (bvsle #x00000007 main@%_776_0)
                      (ite (bvsle #x00000004 main@%_624_0) a!42 a!53)
                      a!54)
                 (ite (bvsle #x00000004 main@%_624_0) a!42 a!53)))
      (a!66 (ite (bvsle #x00000002 main@%_776_0)
                 (ite (= main@%_776_0 #x00000002) a!57 (ite a!58 a!61 a!63))
                 (ite (= main@%_776_0 #x00000001)
                      a!65
                      (ite (bvsle #x00000004 main@%_624_0) a!42 a!53))))
      (a!70 (ite (bvsle #x00000004 main@%_776_0)
                 a!57
                 (ite (bvsle #x00000002 main@%_776_0)
                      (ite (= main@%_776_0 #x00000002)
                           a!65
                           (ite a!69 a!61 a!57))
                      (ite (= main@%_776_0 #x00000001) a!65 a!57))))
      (a!74 (ite (bvsle #x00000004 main@%_776_0)
                 (ite (bvsle #x00000006 main@%_776_0)
                      a!61
                      (ite (= main@%_776_0 #x00000005)
                           a!61
                           (bvadd #x00000001 a!61)))
                 (ite (bvsle #x00000002 main@%_776_0)
                      (ite (= main@%_776_0 #x00000002)
                           a!65
                           (ite a!72 a!61 a!73))
                      (ite (= main@%_776_0 #x00000001) a!57 a!61))))
      (a!75 (ite (= main@%_776_0 #x00000006)
                 (bvadd #x00000001
                        (ite (bvsle #x00000004 main@%_624_0) a!42 a!53))
                 a!63))
      (a!78 (ite (bvsle #x00000004 main@%_776_0)
                 a!65
                 (ite (bvsle #x00000002 main@%_776_0)
                      (ite (= main@%_776_0 #x00000002)
                           a!65
                           (ite a!77 a!61 a!65))
                      a!65)))
      (a!86 (ite (bvsle #x00000004 main@%_776_0)
                 (ite (bvsle #x00000006 main@%_776_0)
                      a!73
                      (ite (= main@%_776_0 #x00000005)
                           a!73
                           (bvadd #x00000001 a!61)))
                 (ite (bvsle #x00000002 main@%_776_0)
                      (ite (= main@%_776_0 #x00000002)
                           a!65
                           (ite a!72 a!61 a!73))
                      (ite (= main@%_776_0 #x00000001) a!57 a!73)))))
(let ((a!67 (ite (= main@%_928_0 #x00000006)
                 (bvadd #x00000001
                        (ite (bvsle #x00000004 main@%_776_0) a!55 a!66))
                 (ite (bvsle #x00000004 main@%_776_0) a!55 a!66)))
      (a!71 (= (bvmul #x00000004
                      (ite (bvsle #x00000004 main@%_776_0) a!55 a!66))
               #x0000001c))
      (a!76 (ite (bvsle #x00000004 main@%_776_0)
                 (ite (bvsle #x00000006 main@%_776_0)
                      (ite (bvsle #x00000007 main@%_776_0) a!63 a!75)
                      a!63)
                 (ite (bvsle #x00000002 main@%_776_0)
                      (ite (= main@%_776_0 #x00000002)
                           a!57
                           (ite a!58 a!61 a!63))
                      (ite (= main@%_776_0 #x00000001) a!65 a!63))))
      (a!82 (= (bvmul #x00000004
                      (ite (bvsle #x00000004 main@%_776_0) a!55 a!66))
               #x00000010))
      (a!85 (= (bvmul #x00000004
                      (ite (bvsle #x00000004 main@%_776_0) a!55 a!66))
               #x00000014))
      (a!90 (= (bvmul #x00000004
                      (ite (bvsle #x00000004 main@%_776_0) a!55 a!66))
               #x0000000c)))
(let ((a!68 (ite (bvsle #x00000006 main@%_928_0)
                 (ite (bvsle #x00000007 main@%_928_0)
                      (ite (bvsle #x00000004 main@%_776_0) a!55 a!66)
                      a!67)
                 (ite (bvsle #x00000004 main@%_776_0) a!55 a!66)))
      (a!79 (ite (bvsle #x00000002 main@%_928_0)
                 (ite (= main@%_928_0 #x00000002) a!70 (ite a!71 a!74 a!76))
                 (ite (= main@%_928_0 #x00000001)
                      a!78
                      (ite (bvsle #x00000004 main@%_776_0) a!55 a!66))))
      (a!83 (ite (bvsle #x00000004 main@%_928_0)
                 a!70
                 (ite (bvsle #x00000002 main@%_928_0)
                      (ite (= main@%_928_0 #x00000002)
                           a!78
                           (ite a!82 a!74 a!70))
                      (ite (= main@%_928_0 #x00000001) a!78 a!70))))
      (a!87 (ite (bvsle #x00000004 main@%_928_0)
                 (ite (bvsle #x00000006 main@%_928_0)
                      a!74
                      (ite (= main@%_928_0 #x00000005)
                           a!74
                           (bvadd #x00000001 a!74)))
                 (ite (bvsle #x00000002 main@%_928_0)
                      (ite (= main@%_928_0 #x00000002)
                           a!78
                           (ite a!85 a!74 a!86))
                      (ite (= main@%_928_0 #x00000001) a!70 a!74))))
      (a!88 (ite (= main@%_928_0 #x00000006)
                 (bvadd #x00000001
                        (ite (bvsle #x00000004 main@%_776_0) a!55 a!66))
                 a!76))
      (a!91 (ite (bvsle #x00000004 main@%_928_0)
                 a!78
                 (ite (bvsle #x00000002 main@%_928_0)
                      (ite (= main@%_928_0 #x00000002)
                           a!78
                           (ite a!90 a!74 a!78))
                      a!78))))
(let ((a!80 (ite (= main@%_1080_0 #x00000006)
                 (bvadd #x00000001
                        (ite (bvsle #x00000004 main@%_928_0) a!68 a!79))
                 (ite (bvsle #x00000004 main@%_928_0) a!68 a!79)))
      (a!84 (= (bvmul #x00000004
                      (ite (bvsle #x00000004 main@%_928_0) a!68 a!79))
               #x0000001c))
      (a!89 (ite (bvsle #x00000004 main@%_928_0)
                 (ite (bvsle #x00000006 main@%_928_0)
                      (ite (bvsle #x00000007 main@%_928_0) a!76 a!88)
                      a!76)
                 (ite (bvsle #x00000002 main@%_928_0)
                      (ite (= main@%_928_0 #x00000002)
                           a!70
                           (ite a!71 a!74 a!76))
                      (ite (= main@%_928_0 #x00000001) a!78 a!76)))))
(let ((a!81 (ite (bvsle #x00000006 main@%_1080_0)
                 (ite (bvsle #x00000007 main@%_1080_0)
                      (ite (bvsle #x00000004 main@%_928_0) a!68 a!79)
                      a!80)
                 (ite (bvsle #x00000004 main@%_928_0) a!68 a!79)))
      (a!92 (ite (bvsle #x00000002 main@%_1080_0)
                 (ite (= main@%_1080_0 #x00000002) a!83 (ite a!84 a!87 a!89))
                 (ite (= main@%_1080_0 #x00000001)
                      a!91
                      (ite (bvsle #x00000004 main@%_928_0) a!68 a!79)))))
  (not (bvule #x00000005 (ite (bvsle #x00000004 main@%_1080_0) a!81 a!92))))))))))))))))))))
